p tw 20 122
0 1
0 2
0 11
0 18
0 3
0 8
0 7
0 15
0 19
0 6
0 14
0 17
0 5
0 13
0 16
1 2
1 4
1 7
1 13
1 18
1 6
1 11
1 14
1 16
2 4
2 6
2 9
2 11
2 10
2 14
2 15
2 16
2 17
2 19
2 13
2 8
2 7
3 4
3 5
3 10
3 8
4 5
4 6
4 7
4 8
4 12
4 13
4 10
4 16
4 11
4 19
4 9
4 14
5 9
5 10
5 7
5 15
5 6
5 18
5 12
5 19
5 8
5 13
6 10
6 18
6 19
6 14
6 17
6 8
6 15
6 16
6 9
7 8
7 12
7 15
7 9
7 17
7 14
7 13
8 11
8 15
8 9
8 16
8 17
8 18
8 13
8 10
8 19
8 14
9 10
9 11
9 17
9 16
10 14
10 16
10 18
10 12
10 13
10 15
10 11
11 15
11 18
11 19
11 13
12 13
12 15
12 19
12 17
12 18
13 14
13 16
13 18
13 15
14 16
14 18
14 15
15 16
15 19
16 19
17 19
17 18
18 19
